language ESSENCE' 1.0
letting initGrid be [
    [1, 1, 1, 2, 3, 3],
[1, 4, 2, 1, 5, 4],
[3, 4, 5, 5, 2, 4],
[4, 5, 3, 1, 2, 2],
[2, 3, 4, 4, 5, 5]
    ]
letting goalBlocksRemaining be 15
letting noSteps be 4
